% Número total de personas
n = 100;

% Número de opiniones posibles
m = 5;

% Distribución inicial de personas por opinión
p = [50, 0, 0, 0, 50];

% Valores de las opiniones
v = [0.249, 0.256, 0.770, 0.797, 0.843];

% Costos extras al mover a opiniones vacías
ce = [17.207, 15.335, 4.165, 19.434, 0.170];

% Matriz de costos de mover de una opinión a otra
C = array2d(1..5, 1..5,
  [
    0.000,    0.866,    2.212,    1.612,    5.292,
    4.028,    0.000,    5.429,    1.232,    5.653,
    2.301,    5.592,    0.000,    3.083,    4.350,
    2.707,    4.667,    2.954,    0.000,    5.072,
    3.334,    1.847,    4.327,    2.999,    0.000
  ]);

% Costo total máximo permitido
C_max = 63.680;

% Número máximo de movimientos permitidos
M_max = 30;
